nbProcess=4;
nbJobs =8;
nbMchs =7;
Process1=[4,4,4,4,4,4,4,4];
pidle=[1,2,3,1,2,3,1];
EnergyS=[10,30,60,10,30,60,10];
TB=[10,15,20,10,15,20,10];
x=
[
[
[1,0,0,0,],
[1,0,0,0,],
[1,0,0,0,],
[1,0,0,0,],
[1,0,0,0,],
[0,0,0,0,],
[0,0,0,0,],
[0,0,0,0,],
],
[
[1,1,0,0,],
[0,1,0,0,],
[1,0,0,0,],
[1,0,0,0,],
[1,0,1,0,],
[1,0,0,0,],
[1,0,0,0,],
[0,0,0,0,],
],
[
[1,0,0,0,],
[1,1,0,0,],
[0,1,0,0,],
[0,1,0,0,],
[1,0,0,0,],
[1,1,0,0,],
[1,1,0,0,],
[1,0,0,0,],
],
[
[0,1,1,0,],
[0,0,0,0,],
[0,1,1,0,],
[0,0,1,0,],
[0,1,0,1,],
[1,1,0,1,],
[0,0,0,0,],
[1,0,0,0,],
],
[
[0,0,1,0,],
[0,0,1,1,],
[0,0,1,0,],
[0,1,0,1,],
[0,1,1,0,],
[0,1,1,0,],
[0,1,1,1,],
[0,1,1,0,],
],
[
[0,0,0,1,],
[0,0,1,0,],
[0,0,1,1,],
[0,0,1,1,],
[0,0,1,1,],
[0,0,1,0,],
[0,0,1,0,],
[0,1,1,1,],
],
[
[0,1,1,1,],
[0,0,1,1,],
[0,1,0,1,],
[0,0,0,0,],
[0,1,0,0,],
[0,0,1,1,],
[0,0,1,1,],
[0,0,1,1,],
],
];
ptime =
[
[
[247,0,0,0],
[214,0,0,0],
[87,0,0,0],
[87,0,0,0],
[128,0,0,0],
[0,0,0,0],
[0,0,0,0],
[0,0,0,0]
],
[
[223,130,0,0],
[0,66,0,0],
[62,0,0,0],
[65,0,0,0],
[123,0,100,0],
[145,0,0,0],
[157,0,0,0],
[0,0,0,0]
],
[
[100,0,0,0],
[150,87,0,0],
[0,180,0,0],
[0,250,0,0],
[145,0,0,0],
[320,123,0,0],
[145,124,0,0],
[257,0,0,0]
],
[
[0,140,150,0],
[0,0,0,0],
[0,105,190,0],
[0,0,145,0],
[0,65,0,165],
[154,150,0,120],
[0,0,0,0],
[245,0,0,0]
],
[
[0,0,160,0],
[0,0,178,120],
[0,0,100,0],
[0,173,0,250],
[0,47,110,0],
[0,192,120,0],
[0,168,145,140],
[0,268,145,0]
],
[
[0,0,0,145],
[0,0,95,0],
[0,0,153,170],
[0,0,136,170],
[0,0,85,180],
[0,0,240,0],
[0,0,165,0],
[0,224,165,150]
],
[
[0,123,200,210],
[0,0,150,150],
[0,145,0,165],
[0,0,0,0],
[0,86,0,0],
[0,0,180,50],
[0,0,178,230],
[0,0,178,150]
]
];
power1=
[
[
[3.9,0,0,0,],
[4.8,0,0,0,],
[3.3,0,0,0,],
[4.2,0,0,0,],
[4.9,0,0,0,],
[0,0,0,0,],
[0,0,0,0,],
[0,0,0,0,],
],
[
[4.8,4,0,0,],
[0,3.1,0,0,],
[4.7,0,0,0,],
[4.2,0,0,0,],
[3,0,4.2,0,],
[4.6,0,0,0,],
[3.3,0,0,0,],
[0,0,0,0,],
],
[
[4.5,0,0,0,],
[4.3,3.2,0,0,],
[0,4.9,0,0,],
[0,3.6,0,0,],
[3.9,0,0,0,],
[4.5,3.8,0,0,],
[4.1,4.9,0,0,],
[4.9,0,0,0,],
],
[
[0,4.3,4.6,0,],
[0,0,0,0,],
[0,4,4.7,0,],
[0,0,4.3,0,],
[0,4.9,0,3.2,],
[3.6,3.8,0,3.6,],
[0,0,0,0,],
[3.6,0,0,0,],
],
[
[0,0,3.6,0,],
[0,0,4.8,3.3,],
[0,0,4.8,0,],
[0,3.8,0,4.2,],
[0,3.4,4,0,],
[0,4.4,3.8,0,],
[0,4.6,3.7,3.2,],
[0,3.7,4.5,0,],
],
[
[0,0,0,3.2,],
[0,0,3,0,],
[0,0,4.2,4.5,],
[0,0,3.2,4.5,],
[0,0,3.7,4.7,],
[0,0,4.8,0,],
[0,0,3.9,0,],
[0,3.8,3.9,3.3,],
],
[
[0,3.6,4.8,3.5,],
[0,0,4.4,3.3,],
[0,3.2,0,3.1,],
[0,0,0,0,],
[0,4.7,0,0,],
[0,0,4,3.5,],
[0,0,3.5,3.9,],
[0,0,3.4,4.7,],
],
];